     Program PWSCF v.6.7MaX starts on 10Jul2021 at 21:59:13

     Reading input from zns_sphalerite_opt.in

     Current dimensions of program PWSCF are:
     Max number of different atomic species (ntypx) = 10
     Max number of k-points (npk) =  40000
     Max angular momentum in pseudopotentials (lmaxx) =  3

     Subspace diagonalization in iterative solution of the eigenvalue problem:
     a serial algorithm will be used

     bravais-lattice index     =            2
     lattice parameter (alat)  =      10.2221  a.u.
     unit-cell volume          =     267.0299 (a.u.)^3
     number of atoms/cell      =            2
     number of atomic types    =            2
     number of electrons       =        26.00
     number of Kohn-Sham states=           13
     kinetic-energy cutoff     =      40.0000  Ry
     charge density cutoff     =     200.0000  Ry
     scf convergence threshold =      1.0E-06
     mixing beta               =       0.7000
     number of iterations used =            8  plain     mixing
     energy convergence thresh.=      1.0E-04
     force convergence thresh. =      1.0E-03
     press convergence thresh. =      5.0E-01
     Exchange-correlation=  SLA  PW   PBX  PBC
                           (   1   4   3   4   0   0   0)
     nstep                     =           50

     celldm(1)=  10.222096  celldm(2)=   0.000000  celldm(3)=   0.000000
     celldm(4)=   0.000000  celldm(5)=   0.000000  celldm(6)=   0.000000

     crystal axes: (cart. coord. in units of alat)
               a(1) = (  -0.500000   0.000000   0.500000 )
               a(2) = (   0.000000   0.500000   0.500000 )
               a(3) = (  -0.500000   0.500000   0.000000 )

     reciprocal axes: (cart. coord. in units 2 pi/alat)
               b(1) = ( -1.000000 -1.000000  1.000000 )
               b(2) = (  1.000000  1.000000  1.000000 )
               b(3) = ( -1.000000  1.000000 -1.000000 )

     PseudoPot. # 1 for Zn read from file:
     /home/antti/espresso/pseudo/zn_pbe_v1.uspp.F.UPF
     MD5 check sum: df62231357ef9e81f77b2b3087fa5675
     Pseudo is Ultrasoft, Zval = 20.0
     Generated by new atomic code, or converted to UPF format
     Using radial grid of  943 points,  6 beta functions with:
                l(1) =   0
                l(2) =   0
                l(3) =   1
                l(4) =   1
                l(5) =   2
                l(6) =   2
     Q(r) pseudized with  8 coefficients,  rinner =    1.100   1.100   1.100
                                                       1.100   1.100

     PseudoPot. # 2 for S  read from file:
     /home/antti/espresso/pseudo/s_pbe_v1.4.uspp.F.UPF
     MD5 check sum: 88d86576ff6df21479756cfb9bdac1df
     Pseudo is Ultrasoft + core correction, Zval =  6.0
     Generated by new atomic code, or converted to UPF format
     Using radial grid of  907 points,  6 beta functions with:
                l(1) =   0
                l(2) =   0
                l(3) =   1
                l(4) =   1
                l(5) =   2
                l(6) =   2
     Q(r) pseudized with  8 coefficients,  rinner =    1.300   1.300   1.300
                                                       1.300   1.300

     atomic species   valence    mass     pseudopotential
        Zn            20.00    65.38000     Zn( 1.00)
        S              6.00    32.06500     S ( 1.00)

     24 Sym. Ops. (no inversion) found

   Cartesian axes

     site n.     atom                  positions (alat units)
         1           Zn  tau(   1) = (   0.0000000   0.0000000   0.0000000  )
         2           S   tau(   2) = (  -0.7500000   0.7500000   0.7500000  )

     number of k points=    29
                       cart. coord. in units 2pi/alat
        k(    1) = (   0.0000000   0.0000000   0.0000000), wk =   0.0039062
        k(    2) = (  -0.1250000   0.1250000  -0.1250000), wk =   0.0312500
        k(    3) = (  -0.2500000   0.2500000  -0.2500000), wk =   0.0312500
        k(    4) = (  -0.3750000   0.3750000  -0.3750000), wk =   0.0312500
        k(    5) = (   0.5000000  -0.5000000   0.5000000), wk =   0.0156250
        k(    6) = (   0.0000000   0.2500000   0.0000000), wk =   0.0234375
        k(    7) = (  -0.1250000   0.3750000  -0.1250000), wk =   0.0937500
        k(    8) = (  -0.2500000   0.5000000  -0.2500000), wk =   0.0937500
        k(    9) = (   0.6250000  -0.3750000   0.6250000), wk =   0.0937500
        k(   10) = (   0.5000000  -0.2500000   0.5000000), wk =   0.0937500
        k(   11) = (   0.3750000  -0.1250000   0.3750000), wk =   0.0937500
        k(   12) = (   0.2500000   0.0000000   0.2500000), wk =   0.0468750
        k(   13) = (   0.0000000   0.5000000   0.0000000), wk =   0.0234375
        k(   14) = (  -0.1250000   0.6250000  -0.1250000), wk =   0.0937500
        k(   15) = (   0.7500000  -0.2500000   0.7500000), wk =   0.0937500
        k(   16) = (   0.6250000  -0.1250000   0.6250000), wk =   0.0937500
        k(   17) = (   0.5000000   0.0000000   0.5000000), wk =   0.0468750
        k(   18) = (   0.0000000   0.7500000   0.0000000), wk =   0.0234375
        k(   19) = (   0.8750000  -0.1250000   0.8750000), wk =   0.0937500
        k(   20) = (   0.7500000   0.0000000   0.7500000), wk =   0.0468750
        k(   21) = (   0.0000000  -1.0000000   0.0000000), wk =   0.0117188
        k(   22) = (  -0.2500000   0.5000000   0.0000000), wk =   0.0937500
        k(   23) = (   0.6250000  -0.3750000   0.8750000), wk =   0.1875000
        k(   24) = (   0.5000000  -0.2500000   0.7500000), wk =   0.0937500
        k(   25) = (   0.7500000  -0.2500000   1.0000000), wk =   0.0937500
        k(   26) = (   0.6250000  -0.1250000   0.8750000), wk =   0.1875000
        k(   27) = (   0.5000000   0.0000000   0.7500000), wk =   0.0937500
        k(   28) = (  -0.2500000  -1.0000000   0.0000000), wk =   0.0468750
        k(   29) = (  -0.5000000  -1.0000000   0.0000000), wk =   0.0234375

     Initial potential from superposition of free atoms

     starting charge   25.99982, renormalised to   26.00000
     Starting wfcs are   17 randomized atomic wfcs

     Self-consistent Calculation

     iteration #  1     ecut=    40.00 Ry     beta= 0.70
     Davidson diagonalization with overlap
     ethr =  1.00E-02,  avg # of iterations =  1.1

     Threshold (ethr) on eigenvalues was too large:
     Diagonalizing with lowered threshold

     Davidson diagonalization with overlap
     ethr =  4.04E-04,  avg # of iterations =  2.0

     total energy              =    -485.72554530 Ry
     estimated scf accuracy    <       0.10611164 Ry

[...]

     End of self-consistent calculation

          k = 0.0000 0.0000 0.0000 (  1139 PWs)   bands (ev):

  -118.1661 -72.3354 -72.3354 -72.3354  -6.4159   0.3827   0.3827   0.3827
     0.8796   0.8796   6.7094   6.7094   6.7094

          k =-0.1250 0.1250-0.1250 (  1149 PWs)   bands (ev):

[...]

     highest occupied level (ev):     6.7094

!    total energy              =    -485.77032719 Ry
     estimated scf accuracy    <       0.00000078 Ry

     The total energy is the sum of the following terms:
     one-electron contribution =    -455.12228322 Ry
     hartree contribution      =     234.43781568 Ry
     xc contribution           =     -50.70080601 Ry
     ewald contribution        =    -214.38505363 Ry

     convergence has been achieved in   7 iterations

     Forces acting on atoms (cartesian axes, Ry/au):

     atom    1 type  1   force =     0.00000000   -0.00000000    0.00000000
     atom    2 type  2   force =    -0.00000000    0.00000000   -0.00000000

     Total force =     0.000000     Total SCF correction =     0.000000

     Computing stress (Cartesian axis) and pressure

          total   stress  (Ry/bohr**3)                   (kbar)     P=       31.93
   0.00021709   0.00000000  -0.00000000           31.93        0.00       -0.00
   0.00000000   0.00021709  -0.00000000            0.00       31.93       -0.00
   0.00000000  -0.00000000   0.00021709            0.00       -0.00       31.93

     BFGS Geometry Optimization
     Energy error            =      0.0E+00
     Gradient error          =      2.5E-31
     Cell gradient error     =      2.2E-04

     number of scf cycles    =   1
     number of bfgs steps    =   0

     enthalpy new            =    -485.7703271864 Ry

     new trust radius        =       0.0177370304 bohr
     new conv_thr            =       0.0000010000 Ry

     new unit-cell volume =    271.40111 a.u.^3 (    40.21750 Ang^3 )
     density =      4.02340 g/cm^3

CELL_PARAMETERS (alat= 10.22209553)
  -0.502713570   0.000000000   0.502713570
  -0.000000000   0.502713570   0.502713570
  -0.502713570   0.502713570   0.000000000

ATOMIC_POSITIONS (crystal)
Zn            0.0000000000        0.0000000000       -0.0000000000
S             0.7500000000        0.7500000000        0.7500000000

     Writing output data file ./zns.save/
     NEW-OLD atomic charge density approx. for the potential
     extrapolated charge   26.41876, renormalised to   26.00000

[...]

     Energy error            =      2.6E-04
     Gradient error          =      3.3E-32
     Cell gradient error     =      4.2E-05

[...]

     enthalpy old            =    -485.7703271864 Ry
     enthalpy new            =    -485.7705870002 Ry

     CASE: enthalpy_new < enthalpy_old

[...]

     number of scf cycles    =   3
     number of bfgs steps    =   2

     enthalpy old            =    -485.7705870002 Ry
     enthalpy new            =    -485.7705968605 Ry

     CASE: enthalpy_new < enthalpy_old

     new trust radius        =       0.0006198021 bohr
     new conv_thr            =       0.0000000100 Ry

     new unit-cell volume =    272.60942 a.u.^3 (    40.39655 Ang^3 )
     density =      4.00557 g/cm^3

[...]

ATOMIC_POSITIONS (crystal)
Zn           -0.0000000000        0.0000000000       -0.0000000000
S             0.7500000000        0.7500000000        0.7500000000

     Writing output data file ./zns.save/
     NEW-OLD atomic charge density approx. for the potential
     extrapolated charge   26.01464, renormalised to   26.00000

[...]

     Energy error            =      2.6E-07
     Gradient error          =      2.6E-31
     Cell gradient error     =      2.1E-06

     bfgs converged in   4 scf cycles and   3 bfgs steps
     (criteria: energy <  1.0E-04 Ry, force <  1.0E-03Ry/Bohr, cell <  5.0E-01kbar)

     End of BFGS Geometry Optimization

     Final enthalpy =    -485.7705966027 Ry

     File ./zns.bfgs deleted, as requested
Begin final coordinates
     new unit-cell volume =    272.60942 a.u.^3 (    40.39655 Ang^3 )
     density =      4.00557 g/cm^3

CELL_PARAMETERS (alat= 10.22209553)
  -0.503458508   0.000000000   0.503458508
  -0.000000000   0.503458508   0.503458508
  -0.503458508   0.503458508   0.000000000

ATOMIC_POSITIONS (crystal)
Zn           -0.0000000000        0.0000000000       -0.0000000000
S             0.7500000000        0.7500000000        0.7500000000
End final coordinates

     Writing output data file ./zns.save/

     Final scf calculation at the relaxed structure.
     The G-vectors are recalculated for the final unit cell
     Results may differ from those at the preceding step.

     bravais-lattice index     =            2
     lattice parameter (alat)  =      10.2221  a.u.
     unit-cell volume          =     272.6094 (a.u.)^3
     number of atoms/cell      =            2
     number of atomic types    =            2
     number of electrons       =        26.00
     number of Kohn-Sham states=           13
     kinetic-energy cutoff     =      40.0000  Ry
     charge density cutoff     =     200.0000  Ry
     scf convergence threshold =      1.0E-08
     mixing beta               =       0.7000
     number of iterations used =            8  plain     mixing
     press convergence thresh. =      5.0E-01
     Exchange-correlation=  SLA  PW   PBX  PBC
                           (   1   4   3   4   0   0   0)

     celldm(1)=  10.222096  celldm(2)=   0.000000  celldm(3)=   0.000000
     celldm(4)=   0.000000  celldm(5)=   0.000000  celldm(6)=   0.000000

     crystal axes: (cart. coord. in units of alat)
               a(1) = (  -0.503459   0.000000   0.503459 )
               a(2) = (  -0.000000   0.503459   0.503459 )
               a(3) = (  -0.503459   0.503459   0.000000 )

     reciprocal axes: (cart. coord. in units 2 pi/alat)
               b(1) = ( -0.993131 -0.993131  0.993131 )
               b(2) = (  0.993131  0.993131  0.993131 )
               b(3) = ( -0.993131  0.993131 -0.993131 )

     PseudoPot. # 1 for Zn read from file:
     /home/antti/espresso/pseudo/zn_pbe_v1.uspp.F.UPF
     MD5 check sum: df62231357ef9e81f77b2b3087fa5675
     Pseudo is Ultrasoft, Zval = 20.0
     Generated by new atomic code, or converted to UPF format
     Using radial grid of  943 points,  6 beta functions with:
                l(1) =   0
                l(2) =   0
                l(3) =   1
                l(4) =   1
                l(5) =   2
                l(6) =   2
     Q(r) pseudized with  8 coefficients,  rinner =    1.100   1.100   1.100
                                                       1.100   1.100

     PseudoPot. # 2 for S  read from file:
     /home/antti/espresso/pseudo/s_pbe_v1.4.uspp.F.UPF
     MD5 check sum: 88d86576ff6df21479756cfb9bdac1df
     Pseudo is Ultrasoft + core correction, Zval =  6.0
     Generated by new atomic code, or converted to UPF format
     Using radial grid of  907 points,  6 beta functions with:
                l(1) =   0
                l(2) =   0
                l(3) =   1
                l(4) =   1
                l(5) =   2
                l(6) =   2
     Q(r) pseudized with  8 coefficients,  rinner =    1.300   1.300   1.300
                                                       1.300   1.300

     atomic species   valence    mass     pseudopotential
        Zn            20.00    65.38000     Zn( 1.00)
        S              6.00    32.06500     S ( 1.00)

     24 Sym. Ops. (no inversion) found

   Cartesian axes

     site n.     atom                  positions (alat units)
         1           Zn  tau(   1) = (   0.0000000   0.0000000   0.0000000  )
         2           S   tau(   2) = (  -0.7551878   0.7551878   0.7551878  )

     number of k points=    29
                       cart. coord. in units 2pi/alat
        k(    1) = (   0.0000000   0.0000000   0.0000000), wk =   0.0039062
        k(    2) = (  -0.1241413   0.1241413  -0.1241413), wk =   0.0312500
        k(    3) = (  -0.2482826   0.2482826  -0.2482826), wk =   0.0312500
        k(    4) = (  -0.3724239   0.3724239  -0.3724239), wk =   0.0312500
        k(    5) = (   0.4965653  -0.4965653   0.4965653), wk =   0.0156250
        k(    6) = (   0.0000000   0.2482826   0.0000000), wk =   0.0234375
        k(    7) = (  -0.1241413   0.3724239  -0.1241413), wk =   0.0937500
        k(    8) = (  -0.2482826   0.4965653  -0.2482826), wk =   0.0937500
        k(    9) = (   0.6207066  -0.3724239   0.6207066), wk =   0.0937500
        k(   10) = (   0.4965653  -0.2482826   0.4965653), wk =   0.0937500
        k(   11) = (   0.3724239  -0.1241413   0.3724239), wk =   0.0937500
        k(   12) = (   0.2482826   0.0000000   0.2482826), wk =   0.0468750
        k(   13) = (   0.0000000   0.4965653   0.0000000), wk =   0.0234375
        k(   14) = (  -0.1241413   0.6207066  -0.1241413), wk =   0.0937500
        k(   15) = (   0.7448479  -0.2482826   0.7448479), wk =   0.0937500
        k(   16) = (   0.6207066  -0.1241413   0.6207066), wk =   0.0937500
        k(   17) = (   0.4965653   0.0000000   0.4965653), wk =   0.0468750
        k(   18) = (   0.0000000   0.7448479   0.0000000), wk =   0.0234375
        k(   19) = (   0.8689892  -0.1241413   0.8689892), wk =   0.0937500
        k(   20) = (   0.7448479   0.0000000   0.7448479), wk =   0.0468750
        k(   21) = (   0.0000000  -0.9931305   0.0000000), wk =   0.0117188
        k(   22) = (  -0.2482826   0.4965653   0.0000000), wk =   0.0937500
        k(   23) = (   0.6207066  -0.3724239   0.8689892), wk =   0.1875000
        k(   24) = (   0.4965653  -0.2482826   0.7448479), wk =   0.0937500
        k(   25) = (   0.7448479  -0.2482826   0.9931305), wk =   0.0937500
        k(   26) = (   0.6207066  -0.1241413   0.8689892), wk =   0.1875000
        k(   27) = (   0.4965653   0.0000000   0.7448479), wk =   0.0937500
        k(   28) = (  -0.2482826  -0.9931305   0.0000000), wk =   0.0468750
        k(   29) = (  -0.4965653  -0.9931305   0.0000000), wk =   0.0234375

     Initial potential from superposition of free atoms

     starting charge   25.99982, renormalised to   26.00000
     Starting wfcs are   17 randomized atomic wfcs

     Self-consistent Calculation

[...]

     total energy              =    -485.77060749 Ry
     estimated scf accuracy    <       0.00000003 Ry

     iteration # 10     ecut=    40.00 Ry     beta= 0.70
     Davidson diagonalization with overlap
     ethr =  4.14E-11,  avg # of iterations =  2.4

     End of self-consistent calculation

[...]

          k = 0.4966 0.0000 0.7448 (  1166 PWs)   bands (ev):

[...]

          k =-0.4966-0.9931 0.0000 (  1176 PWs)   bands (ev):

  -118.3947 -72.5646 -72.5646 -72.5646  -5.3687   0.3144   0.4476   0.6030
     0.6181   1.0295   1.9459   3.7874   3.8016

     highest occupied level (ev):     6.4248

!    total energy              =    -485.77060749 Ry
     estimated scf accuracy    <          7.5E-11 Ry

     The total energy is the sum of the following terms:
     one-electron contribution =    -457.63954792 Ry
     hartree contribution      =     235.46369946 Ry
     xc contribution           =     -50.68242324 Ry
     ewald contribution        =    -212.91233579 Ry

     convergence has been achieved in  10 iterations

     Forces acting on atoms (cartesian axes, Ry/au):

     atom    1 type  1   force =     0.00000000    0.00000000   -0.00000000
     atom    2 type  2   force =     0.00000000   -0.00000000    0.00000000

     Total force =     0.000000     Total SCF correction =     0.000000

     Computing stress (Cartesian axis) and pressure

          total   stress  (Ry/bohr**3)                   (kbar)     P=       -0.20
  -0.00000138  -0.00000000  -0.00000000           -0.20       -0.00       -0.00
  -0.00000000  -0.00000138   0.00000000           -0.00       -0.20        0.00
   0.00000000   0.00000000  -0.00000138            0.00        0.00       -0.20

     Writing output data file ./zns.save/

     General routines

     Parallel routines

   This run was terminated on:  22: 0:51  10Jul2021

   JOB DONE.