     Program PWSCF v.6.7MaX starts on 10Jul2021 at 22:10:39

     Reading input from zns_wurtzite_opt.in

     Current dimensions of program PWSCF are:
     Max number of different atomic species (ntypx) = 10
     Max number of k-points (npk) =  40000
     Max angular momentum in pseudopotentials (lmaxx) =  3

     Subspace diagonalization in iterative solution of the eigenvalue problem:
     a serial algorithm will be used

     bravais-lattice index     =            4
     lattice parameter (alat)  =       7.2017  a.u.
     unit-cell volume          =     529.1416 (a.u.)^3
     number of atoms/cell      =            4
     number of atomic types    =            2
     number of electrons       =        52.00
     number of Kohn-Sham states=           26
     kinetic-energy cutoff     =      40.0000  Ry
     charge density cutoff     =     200.0000  Ry
     scf convergence threshold =      1.0E-06
     mixing beta               =       0.7000
     number of iterations used =            8  plain     mixing
     energy convergence thresh.=      1.0E-04
     force convergence thresh. =      1.0E-03
     press convergence thresh. =      5.0E-01
     Exchange-correlation=  SLA  PW   PBX  PBC
                           (   1   4   3   4   0   0   0)
     nstep                     =           50

     celldm(1)=   7.201746  celldm(2)=   0.000000  celldm(3)=   1.635791
     celldm(4)=   0.000000  celldm(5)=   0.000000  celldm(6)=   0.000000

     crystal axes: (cart. coord. in units of alat)
               a(1) = (   1.000000   0.000000   0.000000 )
               a(2) = (  -0.500000   0.866025   0.000000 )
               a(3) = (   0.000000   0.000000   1.635791 )

     reciprocal axes: (cart. coord. in units 2 pi/alat)
               b(1) = (  1.000000  0.577350 -0.000000 )
               b(2) = (  0.000000  1.154701  0.000000 )
               b(3) = (  0.000000 -0.000000  0.611325 )

     PseudoPot. # 1 for Zn read from file:
     /home/antti/espresso/pseudo/zn_pbe_v1.uspp.F.UPF
     MD5 check sum: df62231357ef9e81f77b2b3087fa5675
     Pseudo is Ultrasoft, Zval = 20.0
     Generated by new atomic code, or converted to UPF format
     Using radial grid of  943 points,  6 beta functions with:
                l(1) =   0
                l(2) =   0
                l(3) =   1
                l(4) =   1
                l(5) =   2
                l(6) =   2
     Q(r) pseudized with  8 coefficients,  rinner =    1.100   1.100   1.100
                                                       1.100   1.100

     PseudoPot. # 2 for S  read from file:
     /home/antti/espresso/pseudo/s_pbe_v1.4.uspp.F.UPF
     MD5 check sum: 88d86576ff6df21479756cfb9bdac1df
     Pseudo is Ultrasoft + core correction, Zval =  6.0
     Generated by new atomic code, or converted to UPF format
     Using radial grid of  907 points,  6 beta functions with:
                l(1) =   0
                l(2) =   0
                l(3) =   1
                l(4) =   1
                l(5) =   2
                l(6) =   2
     Q(r) pseudized with  8 coefficients,  rinner =    1.300   1.300   1.300
                                                       1.300   1.300

     atomic species   valence    mass     pseudopotential
        Zn            20.00    65.38000     Zn( 1.00)
        S              6.00    32.06500     S ( 1.00)

     12 Sym. Ops. (no inversion) found ( 6 have fractional translation)

   Cartesian axes

     site n.     atom                  positions (alat units)
         1           Zn  tau(   1) = (  -0.0000000   0.5773503   0.0000000  )
         2           Zn  tau(   2) = (   0.5000000   0.2886751   0.8178956  )
         3           S   tau(   3) = (  -0.0000000   0.5773503   0.6297796  )
         4           S   tau(   4) = (   0.5000000   0.2886751   1.4476752  )

     number of k points=    30
                       cart. coord. in units 2pi/alat
        k(    1) = (   0.0000000   0.0000000   0.0000000), wk =   0.0078125
        k(    2) = (   0.0000000   0.0000000   0.1528312), wk =   0.0156250
        k(    3) = (   0.0000000   0.0000000  -0.3056625), wk =   0.0078125
        k(    4) = (   0.0000000   0.1443376   0.0000000), wk =   0.0468750
        k(    5) = (   0.0000000   0.1443376   0.1528312), wk =   0.0937500
        k(    6) = (   0.0000000   0.1443376  -0.3056625), wk =   0.0468750
        k(    7) = (   0.0000000   0.2886751   0.0000000), wk =   0.0468750
        k(    8) = (   0.0000000   0.2886751   0.1528312), wk =   0.0937500
        k(    9) = (   0.0000000   0.2886751  -0.3056625), wk =   0.0468750
        k(   10) = (   0.0000000   0.4330127   0.0000000), wk =   0.0468750
        k(   11) = (   0.0000000   0.4330127   0.1528312), wk =   0.0937500
        k(   12) = (   0.0000000   0.4330127  -0.3056625), wk =   0.0468750
        k(   13) = (   0.0000000  -0.5773503   0.0000000), wk =   0.0234375
        k(   14) = (   0.0000000  -0.5773503   0.1528312), wk =   0.0468750
        k(   15) = (   0.0000000  -0.5773503  -0.3056625), wk =   0.0234375
        k(   16) = (   0.1250000   0.2165064   0.0000000), wk =   0.0468750
        k(   17) = (   0.1250000   0.2165064   0.1528312), wk =   0.0937500
        k(   18) = (   0.1250000   0.2165064  -0.3056625), wk =   0.0468750
        k(   19) = (   0.1250000   0.3608439   0.0000000), wk =   0.0937500
        k(   20) = (   0.1250000   0.3608439   0.1528312), wk =   0.1875000
        k(   21) = (   0.1250000   0.3608439  -0.3056625), wk =   0.0937500
        k(   22) = (   0.1250000   0.5051815   0.0000000), wk =   0.0937500
        k(   23) = (   0.1250000   0.5051815   0.1528312), wk =   0.1875000
        k(   24) = (   0.1250000   0.5051815  -0.3056625), wk =   0.0937500
        k(   25) = (   0.2500000   0.4330127   0.0000000), wk =   0.0468750
        k(   26) = (   0.2500000   0.4330127   0.1528312), wk =   0.0937500
        k(   27) = (   0.2500000   0.4330127  -0.3056625), wk =   0.0468750
        k(   28) = (   0.2500000   0.5773503   0.0000000), wk =   0.0468750
        k(   29) = (   0.2500000   0.5773503   0.1528312), wk =   0.0937500
        k(   30) = (   0.2500000   0.5773503  -0.3056625), wk =   0.0468750

     Initial potential from superposition of free atoms

     starting charge   51.99964, renormalised to   52.00000
     Starting wfcs are   34 randomized atomic wfcs

     Self-consistent Calculation

     iteration #  1     ecut=    40.00 Ry     beta= 0.70
     Davidson diagonalization with overlap
     ethr =  1.00E-02,  avg # of iterations =  1.0

     Threshold (ethr) on eigenvalues was too large:
     Diagonalizing with lowered threshold

     Davidson diagonalization with overlap
     ethr =  4.04E-04,  avg # of iterations =  2.0

     total energy              =    -971.44832147 Ry
     estimated scf accuracy    <       0.21216411 Ry

[...]

     End of self-consistent calculation

          k = 0.0000 0.0000 0.0000 (  2273 PWs)   bands (ev):

  -118.0565-118.0564 -72.2271 -72.2271 -72.2257 -72.2257 -72.2257 -72.2257
    -6.3648  -5.4390   0.4704   0.4704   0.5346   0.5346   0.5457   0.9540
     0.9540   1.0346   1.0346   1.1921   1.6685   5.9765   5.9765   6.8245
     6.8245   6.8352

[...]

     highest occupied level (ev):     6.8352

!    total energy              =    -971.53752964 Ry
     estimated scf accuracy    <       0.00000003 Ry

     The total energy is the sum of the following terms:
     one-electron contribution =    -908.87839239 Ry
     hartree contribution      =     468.37627384 Ry
     xc contribution           =    -101.42034621 Ry
     ewald contribution        =    -429.61506488 Ry

     convergence has been achieved in   8 iterations

     Forces acting on atoms (cartesian axes, Ry/au):

     atom    1 type  1   force =     0.00000000   -0.00000000    0.01250033
     atom    2 type  1   force =    -0.00000000   -0.00000000    0.01250033
     atom    3 type  2   force =     0.00000000    0.00000000   -0.01250033
     atom    4 type  2   force =     0.00000000    0.00000000   -0.01250033

     Total force =     0.025001     Total SCF correction =     0.000076

     Computing stress (Cartesian axis) and pressure

          total   stress  (Ry/bohr**3)                   (kbar)     P=       24.11
   0.00021056   0.00000000   0.00000000           30.97        0.00        0.00
   0.00000000   0.00021056   0.00000000            0.00       30.97        0.00
   0.00000000   0.00000000   0.00007058            0.00        0.00       10.38

     BFGS Geometry Optimization
     Energy error            =      0.0E+00
     Gradient error          =      1.3E-02
     Cell gradient error     =      2.1E-04

     number of scf cycles    =   1
     number of bfgs steps    =   0

     enthalpy new            =    -971.5375296384 Ry

     new trust radius        =       0.0242177064 bohr
     new conv_thr            =       0.0000010000 Ry

     new unit-cell volume =    535.67058 a.u.^3 (    79.37819 Ang^3 )
     density =      4.07697 g/cm^3

CELL_PARAMETERS (alat=  7.20174626)
   1.005264014   0.000000000   0.000000000
  -0.502632007   0.870584174   0.000000000
   0.000000000   0.000000000   1.638677319

ATOMIC_POSITIONS (crystal)
Zn            0.3333333333        0.6666666667        0.0010610985
Zn            0.6666666667        0.3333333333        0.5010610985
S             0.3333333333        0.6666666667        0.3839389015
S             0.6666666667        0.3333333333        0.8839389015

     Writing output data file ./zns.save/
     NEW-OLD atomic charge density approx. for the potential
     extrapolated charge   52.63379, renormalised to   52.00000

[...]

          k =-0.0000-0.0000 0.1526 (  2262 PWs)   bands (ev):

[...]

     Energy error            =      1.5E-03
     Gradient error          =      9.1E-03
     Cell gradient error     =      1.0E-04

[...]

     enthalpy old            =    -971.5375296384 Ry
     enthalpy new            =    -971.5390472704 Ry

     CASE: enthalpy_new < enthalpy_old

[...]

     Total force =     0.000056     Total SCF correction =     0.000016
     SCF correction compared to forces is large: reduce conv_thr to get better values

[...]

     CASE: enthalpy_new > enthalpy_old

[...]

     CASE: enthalpy_new > enthalpy_old

     new trust radius        =       0.0000485219 bohr

     trust_radius < trust_radius_min

     resetting bfgs history

     new conv_thr            =       0.0000000100 Ry

[...]

     new trust radius        =       0.0003053845 bohr
     new conv_thr            =       0.0000000100 Ry

[...]

     WARNING: bfgs curvature condition failed, Theta= 0.880
     new trust radius        =       0.0003359272 bohr
     new conv_thr            =       0.0000000100 Ry

[...]

     Threshold (ethr) on eigenvalues was too large:
     Diagonalizing with lowered threshold

     Davidson diagonalization with overlap
     ethr =  7.17E-08,  avg # of iterations =  1.0

[...]

     number of scf cycles    =  18
     number of bfgs steps    =  13

     enthalpy old            =    -971.5403384260 Ry
     enthalpy new            =    -971.5403385242 Ry

     CASE: enthalpy_new < enthalpy_old

     WARNING: bfgs curvature condition failed, Theta= 0.183
     new trust radius        =       0.0005038963 bohr
     new conv_thr            =       0.0000000100 Ry

     new unit-cell volume =    545.01547 a.u.^3 (    80.76296 Ang^3 )
     density =      4.00707 g/cm^3

[...]

ATOMIC_POSITIONS (crystal)
Zn            0.3333333333        0.6666666667        0.0051730472
Zn            0.6666666667        0.3333333333        0.5051730472
S             0.3333333333        0.6666666667        0.3798269528
S             0.6666666667        0.3333333333        0.8798269528

     Writing output data file ./zns.save/
     NEW-OLD atomic charge density approx. for the potential
     extrapolated charge   51.99037, renormalised to   52.00000

[...]

     Energy error            =      3.5E-08
     Gradient error          =      9.7E-05
     Cell gradient error     =      2.2E-06

     bfgs converged in  19 scf cycles and  14 bfgs steps
     (criteria: energy <  1.0E-04 Ry, force <  1.0E-03Ry/Bohr, cell <  5.0E-01kbar)

     End of BFGS Geometry Optimization

     Final enthalpy =    -971.5403385595 Ry

     File ./zns.bfgs deleted, as requested
Begin final coordinates
     new unit-cell volume =    545.01547 a.u.^3 (    80.76296 Ang^3 )
     density =      4.00707 g/cm^3

CELL_PARAMETERS (alat=  7.20174626)
   1.009222919   0.000000000   0.000000000
  -0.504611459   0.874012686  -0.000000000
  -0.000000000   0.000000000   1.654209614

ATOMIC_POSITIONS (crystal)
Zn            0.3333333333        0.6666666667        0.0051730472
Zn            0.6666666667        0.3333333333        0.5051730472
S             0.3333333333        0.6666666667        0.3798269528
S             0.6666666667        0.3333333333        0.8798269528
End final coordinates

     Writing output data file ./zns.save/

     Final scf calculation at the relaxed structure.
     The G-vectors are recalculated for the final unit cell
     Results may differ from those at the preceding step.

     bravais-lattice index     =            4
     lattice parameter (alat)  =       7.2017  a.u.
     unit-cell volume          =     545.0155 (a.u.)^3
     number of atoms/cell      =            4
     number of atomic types    =            2
     number of electrons       =        52.00
     number of Kohn-Sham states=           26
     kinetic-energy cutoff     =      40.0000  Ry
     charge density cutoff     =     200.0000  Ry
     scf convergence threshold =      1.0E-08
     mixing beta               =       0.7000
     number of iterations used =            8  plain     mixing
     press convergence thresh. =      5.0E-01
     Exchange-correlation=  SLA  PW   PBX  PBC
                           (   1   4   3   4   0   0   0)

     celldm(1)=   7.201746  celldm(2)=   0.000000  celldm(3)=   1.635791
     celldm(4)=   0.000000  celldm(5)=   0.000000  celldm(6)=   0.000000

     crystal axes: (cart. coord. in units of alat)
               a(1) = (   1.009223   0.000000   0.000000 )
               a(2) = (  -0.504611   0.874013  -0.000000 )
               a(3) = (  -0.000000   0.000000   1.654210 )

     reciprocal axes: (cart. coord. in units 2 pi/alat)
               b(1) = (  0.990861  0.572074  0.000000 )
               b(2) = ( -0.000000  1.144148 -0.000000 )
               b(3) = ( -0.000000 -0.000000  0.604518 )

     PseudoPot. # 1 for Zn read from file:
     /home/antti/espresso/pseudo/zn_pbe_v1.uspp.F.UPF
     MD5 check sum: df62231357ef9e81f77b2b3087fa5675
     Pseudo is Ultrasoft, Zval = 20.0
     Generated by new atomic code, or converted to UPF format
     Using radial grid of  943 points,  6 beta functions with:
                l(1) =   0
                l(2) =   0
                l(3) =   1
                l(4) =   1
                l(5) =   2
                l(6) =   2
     Q(r) pseudized with  8 coefficients,  rinner =    1.100   1.100   1.100
                                                       1.100   1.100

     PseudoPot. # 2 for S  read from file:
     /home/antti/espresso/pseudo/s_pbe_v1.4.uspp.F.UPF
     MD5 check sum: 88d86576ff6df21479756cfb9bdac1df
     Pseudo is Ultrasoft + core correction, Zval =  6.0
     Generated by new atomic code, or converted to UPF format
     Using radial grid of  907 points,  6 beta functions with:
                l(1) =   0
                l(2) =   0
                l(3) =   1
                l(4) =   1
                l(5) =   2
                l(6) =   2
     Q(r) pseudized with  8 coefficients,  rinner =    1.300   1.300   1.300
                                                       1.300   1.300

     atomic species   valence    mass     pseudopotential
        Zn            20.00    65.38000     Zn( 1.00)
        S              6.00    32.06500     S ( 1.00)

     12 Sym. Ops. (no inversion) found ( 6 have fractional translation)

   Cartesian axes

     site n.     atom                  positions (alat units)
         1           Zn  tau(   1) = (  -0.0000000   0.5826751   0.0085573  )
         2           Zn  tau(   2) = (   0.5046115   0.2913376   0.8356621  )
         3           S   tau(   3) = (  -0.0000000   0.5826751   0.6283134  )
         4           S   tau(   4) = (   0.5046115   0.2913376   1.4554182  )

     number of k points=    30
                       cart. coord. in units 2pi/alat
        k(    1) = (   0.0000000   0.0000000   0.0000000), wk =   0.0078125
        k(    2) = (  -0.0000000  -0.0000000   0.1511296), wk =   0.0156250
        k(    3) = (   0.0000000   0.0000000  -0.3022592), wk =   0.0078125
        k(    4) = (  -0.0000000   0.1430185  -0.0000000), wk =   0.0468750
        k(    5) = (  -0.0000000   0.1430185   0.1511296), wk =   0.0937500
        k(    6) = (  -0.0000000   0.1430185  -0.3022592), wk =   0.0468750
        k(    7) = (  -0.0000000   0.2860370  -0.0000000), wk =   0.0468750
        k(    8) = (  -0.0000000   0.2860370   0.1511296), wk =   0.0937500
        k(    9) = (  -0.0000000   0.2860370  -0.3022592), wk =   0.0468750
        k(   10) = (  -0.0000000   0.4290556  -0.0000000), wk =   0.0468750
        k(   11) = (  -0.0000000   0.4290556   0.1511296), wk =   0.0937500
        k(   12) = (  -0.0000000   0.4290556  -0.3022592), wk =   0.0468750
        k(   13) = (   0.0000000  -0.5720741   0.0000000), wk =   0.0234375
        k(   14) = (   0.0000000  -0.5720741   0.1511296), wk =   0.0468750
        k(   15) = (   0.0000000  -0.5720741  -0.3022592), wk =   0.0234375
        k(   16) = (   0.1238577   0.2145278  -0.0000000), wk =   0.0468750
        k(   17) = (   0.1238577   0.2145278   0.1511296), wk =   0.0937500
        k(   18) = (   0.1238577   0.2145278  -0.3022592), wk =   0.0468750
        k(   19) = (   0.1238577   0.3575463  -0.0000000), wk =   0.0937500
        k(   20) = (   0.1238577   0.3575463   0.1511296), wk =   0.1875000
        k(   21) = (   0.1238577   0.3575463  -0.3022592), wk =   0.0937500
        k(   22) = (   0.1238577   0.5005648  -0.0000000), wk =   0.0937500
        k(   23) = (   0.1238577   0.5005648   0.1511296), wk =   0.1875000
        k(   24) = (   0.1238577   0.5005648  -0.3022592), wk =   0.0937500
        k(   25) = (   0.2477153   0.4290556  -0.0000000), wk =   0.0468750
        k(   26) = (   0.2477153   0.4290556   0.1511296), wk =   0.0937500
        k(   27) = (   0.2477153   0.4290556  -0.3022592), wk =   0.0468750
        k(   28) = (   0.2477153   0.5720741  -0.0000000), wk =   0.0468750
        k(   29) = (   0.2477153   0.5720741   0.1511296), wk =   0.0937500
        k(   30) = (   0.2477153   0.5720741  -0.3022592), wk =   0.0468750

     Initial potential from superposition of free atoms

     starting charge   51.99964, renormalised to   52.00000
     Starting wfcs are   34 randomized atomic wfcs

     Self-consistent Calculation

[...]

     total energy              =    -971.54037633 Ry
     estimated scf accuracy    <       0.00000003 Ry

     iteration # 10     ecut=    40.00 Ry     beta= 0.70
     Davidson diagonalization with overlap
     ethr =  6.05E-11,  avg # of iterations =  2.0

     End of self-consistent calculation

[...]

          k =-0.0000 0.4291-0.3023 (  2326 PWs)   bands (ev):

[...]

          k = 0.2477 0.5721-0.3023 (  2324 PWs)   bands (ev):

  -118.3886-118.3886 -72.5589 -72.5589 -72.5589 -72.5589 -72.5583 -72.5583
    -5.4523  -5.4523   0.3135   0.3135   0.3782   0.3782   0.5418   0.5418
     0.6482   0.6482   0.9522   0.9522   1.8233   1.8233   3.6914   3.6914
     5.1345   5.1345

     highest occupied level (ev):     6.4469

!    total energy              =    -971.54037634 Ry
     estimated scf accuracy    <          9.0E-11 Ry

     The total energy is the sum of the following terms:
     one-electron contribution =    -915.91872058 Ry
     hartree contribution      =     471.26042908 Ry
     xc contribution           =    -101.36916479 Ry
     ewald contribution        =    -425.51292005 Ry

     convergence has been achieved in  10 iterations

     Forces acting on atoms (cartesian axes, Ry/au):

     atom    1 type  1   force =    -0.00000000   -0.00000000    0.00009197
     atom    2 type  1   force =     0.00000000    0.00000000    0.00009197
     atom    3 type  2   force =    -0.00000000   -0.00000000   -0.00009197
     atom    4 type  2   force =     0.00000000    0.00000000   -0.00009197

     Total force =     0.000184     Total SCF correction =     0.000004

     Computing stress (Cartesian axis) and pressure

          total   stress  (Ry/bohr**3)                   (kbar)     P=        0.87
   0.00000520  -0.00000000  -0.00000000            0.77       -0.00       -0.00
  -0.00000000   0.00000520  -0.00000000           -0.00        0.77       -0.00
   0.00000000   0.00000000   0.00000742            0.00        0.00        1.09

     Writing output data file ./zns.save/

     General routines

     Parallel routines

   This run was terminated on:  22:27:10  10Jul2021

   JOB DONE.